* SDPA sparse format data
* File name = st_e20.dat-s
* mDim = 111, nBlock = 17
* size of bVect = 1 * 111
* size of sparseMatrix = 1138 * 5
111
 17
-144 -123  7  8  5  5  6  5  6  5  5  5  6  5  6  5  5 
   0.0000000000    0.0000000000    0.0000000000   -1.0000000000    0.0000000000    0.0000000000    0.0000000000    0.0000000000    0.0000000000    0.0000000000    0.0000000000    0.0000000000    0.0000000000    0.0000000000    0.0000000000    0.0000000000    0.0000000000    0.0000000000    0.0000000000    0.0000000000    0.0000000000    0.0000000000    0.0000000000    0.0000000000    0.0000000000    0.0000000000    0.0000000000    0.0000000000    0.0000000000    0.0000000000    0.0000000000    0.0000000000    0.0000000000    0.0000000000    0.0000000000    0.0000000000    0.0000000000    0.0000000000    0.0000000000    0.0000000000    0.0000000000    0.0000000000    0.0000000000    0.0000000000    0.0000000000    0.0000000000    0.0000000000    0.0000000000    0.0000000000    0.0000000000    0.0000000000    0.0000000000    0.0000000000    0.0000000000    0.0000000000    0.0000000000    0.0000000000    0.0000000000    0.0000000000    0.0000000000    0.0000000000    0.0000000000    0.0000000000    0.0000000000    0.0000000000    0.0000000000    0.0000000000    0.0000000000    0.0000000000    0.0000000000    0.0000000000    0.0000000000    0.0000000000    0.0000000000    0.0000000000    0.0000000000    0.0000000000    0.0000000000    0.0000000000    0.0000000000    0.0000000000    0.0000000000    0.0000000000    0.0000000000    0.0000000000    0.0000000000    0.0000000000    0.0000000000    0.0000000000    0.0000000000    0.0000000000    0.0000000000    0.0000000000    0.0000000000    0.0000000000    0.0000000000    0.0000000000    0.0000000000    0.0000000000    0.0000000000    0.0000000000    0.0000000000    0.0000000000    0.0000000000    0.0000000000    0.0000000000    0.0000000000    0.0000000000    0.0000000000    0.0000000000    0.0000000000 
  0   1   1   1    0.6406325947
  1   1   1   1    0.6406332197
 11   1   1   1    1.0000000000
  1   1   2   2   -0.6406325947
  7   1   2   2    0.6406332197
 30   1   2   2    1.0000000000
  3   1   3   3   -0.6406325947
  9   1   3   3    0.6406332197
 38   1   3   3    1.0000000000
  5   1   4   4   -0.6406325947
 11   1   4   4    0.6406332197
 42   1   4   4    1.0000000000
  6   1   5   5   -0.6406325947
 12   1   5   5    0.6406332197
 43   1   5   5    1.0000000000
  7   1   6   6   -0.6406325947
 26   1   6   6    0.6406332197
 71   1   6   6    1.0000000000
  9   1   7   7   -0.6406325947
 28   1   7   7    0.6406332197
 73   1   7   7    1.0000000000
 11   1   8   8   -0.6406325947
 30   1   8   8    0.6406332197
 75   1   8   8    1.0000000000
 12   1   9   9   -0.6406325947
 31   1   9   9    0.6406332197
 76   1   9   9    1.0000000000
 17   1  10  10   -0.6406325947
 36   1  10  10    0.6406332197
 81   1  10  10    1.0000000000
 19   1  11  11   -0.6406325947
 38   1  11  11    0.6406332197
 83   1  11  11    1.0000000000
 20   1  12  12   -0.6406325947
 39   1  12  12    0.6406332197
 84   1  12  12    1.0000000000
 23   1  13  13   -0.6406325947
 42   1  13  13    0.6406332197
 87   1  13  13    1.0000000000
 24   1  14  14   -0.6406325947
 43   1  14  14    0.6406332197
 88   1  14  14    1.0000000000
 25   1  15  15   -0.6406325947
 44   1  15  15    0.6406332197
 89   1  15  15    1.0000000000
  2   1  16  16    0.6471042560
  1   1  16  16   -0.6471036310
 16   1  16  16    1.0000000000
  8   1  17  17    0.6471042560
  7   1  17  17   -0.6471036310
 35   1  17  17    1.0000000000
 13   1  18  18    0.6471042560
  8   1  18  18   -0.6471036310
 48   1  18  18    1.0000000000
 14   1  19  19    0.6471042560
  9   1  19  19   -0.6471036310
 51   1  19  19    1.0000000000
 15   1  20  20    0.6471042560
 10   1  20  20   -0.6471036310
 53   1  20  20    1.0000000000
 16   1  21  21    0.6471042560
 12   1  21  21   -0.6471036310
 54   1  21  21    1.0000000000
 27   1  22  22    0.6471042560
 26   1  22  22   -0.6471036310
 72   1  22  22    1.0000000000
 32   1  23  23    0.6471042560
 27   1  23  23   -0.6471036310
 77   1  23  23    1.0000000000
 33   1  24  24    0.6471042560
 28   1  24  24   -0.6471036310
 78   1  24  24    1.0000000000
 34   1  25  25    0.6471042560
 29   1  25  25   -0.6471036310
 79   1  25  25    1.0000000000
 35   1  26  26    0.6471042560
 31   1  26  26   -0.6471036310
 80   1  26  26    1.0000000000
 45   1  27  27    0.6471042560
 32   1  27  27   -0.6471036310
 90   1  27  27    1.0000000000
 46   1  28  28    0.6471042560
 33   1  28  28   -0.6471036310
 91   1  28  28    1.0000000000
 47   1  29  29    0.6471042560
 34   1  29  29   -0.6471036310
 92   1  29  29    1.0000000000
 48   1  30  30    0.6471042560
 35   1  30  30   -0.6471036310
 93   1  30  30    1.0000000000
 49   1  31  31    0.6471042560
 36   1  31  31   -0.6471036310
 94   1  31  31    1.0000000000
 50   1  32  32    0.6471042560
 37   1  32  32   -0.6471036310
 95   1  32  32    1.0000000000
 51   1  33  33    0.6471042560
 39   1  33  33   -0.6471036310
 96   1  33  33    1.0000000000
 52   1  34  34    0.6471042560
 40   1  34  34   -0.6471036310
 97   1  34  34    1.0000000000
 53   1  35  35    0.6471042560
 41   1  35  35   -0.6471036310
 98   1  35  35    1.0000000000
 54   1  36  36    0.6471042560
 44   1  36  36   -0.6471036310
 99   1  36  36    1.0000000000
  0   1  37  37    0.9999996081
  3   1  37  37    1.0000000000
  1   1  37  37    0.9999996081
 19   1  37  37    0.6270521623
  1   1  38  38   -0.9999996081
  9   1  38  38    1.0000000000
  7   1  38  38    0.9999996081
 38   1  38  38    0.6270521623
  3   1  39  39   -0.9999996081
 17   1  39  39    1.0000000000
  9   1  39  39    0.9999996081
 57   1  39  39    0.6270521623
  5   1  40  40   -0.9999996081
 19   1  40  40    1.0000000000
 11   1  40  40    0.9999996081
 61   1  40  40    0.6270521623
  6   1  41  41   -0.9999996081
 20   1  41  41    1.0000000000
 12   1  41  41    0.9999996081
 62   1  41  41    0.6270521623
  7   1  42  42   -0.9999996081
 28   1  42  42    1.0000000000
 26   1  42  42    0.9999996081
 73   1  42  42    0.6270521623
  9   1  43  43   -0.9999996081
 36   1  43  43    1.0000000000
 28   1  43  43    0.9999996081
 81   1  43  43    0.6270521623
 11   1  44  44   -0.9999996081
 38   1  44  44    1.0000000000
 30   1  44  44    0.9999996081
 83   1  44  44    0.6270521623
 12   1  45  45   -0.9999996081
 39   1  45  45    1.0000000000
 31   1  45  45    0.9999996081
 84   1  45  45    0.6270521623
 17   1  46  46   -0.9999996081
 55   1  46  46    1.0000000000
 36   1  46  46    0.9999996081
100   1  46  46    0.6270521623
 19   1  47  47   -0.9999996081
 57   1  47  47    1.0000000000
 38   1  47  47    0.9999996081
102   1  47  47    0.6270521623
 20   1  48  48   -0.9999996081
 58   1  48  48    1.0000000000
 39   1  48  48    0.9999996081
103   1  48  48    0.6270521623
 23   1  49  49   -0.9999996081
 61   1  49  49    1.0000000000
 42   1  49  49    0.9999996081
106   1  49  49    0.6270521623
 24   1  50  50   -0.9999996081
 62   1  50  50    1.0000000000
 43   1  50  50    0.9999996081
107   1  50  50    0.6270521623
 25   1  51  51   -0.9999996081
 63   1  51  51    1.0000000000
 44   1  51  51    0.9999996081
108   1  51  51    0.6270521623
  4   1  52  52    1.0000000000
  1   1  52  52   -0.9999996473
  2   1  52  52    0.9999996473
  3   1  52  52   -0.9999996473
 22   1  52  52    0.5643469682
 10   1  53  53    1.0000000000
  7   1  53  53   -0.9999996473
  8   1  53  53    0.9999996473
  9   1  53  53   -0.9999996473
 41   1  53  53    0.5643469682
 15   1  54  54    1.0000000000
  8   1  54  54   -0.9999996473
 13   1  54  54    0.9999996473
 14   1  54  54   -0.9999996473
 53   1  54  54    0.5643469682
 18   1  55  55    1.0000000000
  9   1  55  55   -0.9999996473
 14   1  55  55    0.9999996473
 17   1  55  55   -0.9999996473
 60   1  55  55    0.5643469682
 21   1  56  56    1.0000000000
 10   1  56  56   -0.9999996473
 15   1  56  56    0.9999996473
 18   1  56  56   -0.9999996473
 65   1  56  56    0.5643469682
 22   1  57  57    1.0000000000
 12   1  57  57   -0.9999996473
 16   1  57  57    0.9999996473
 20   1  57  57   -0.9999996473
 66   1  57  57    0.5643469682
 29   1  58  58    1.0000000000
 26   1  58  58   -0.9999996473
 27   1  58  58    0.9999996473
 28   1  58  58   -0.9999996473
 74   1  58  58    0.5643469682
 34   1  59  59    1.0000000000
 27   1  59  59   -0.9999996473
 32   1  59  59    0.9999996473
 33   1  59  59   -0.9999996473
 79   1  59  59    0.5643469682
 37   1  60  60    1.0000000000
 28   1  60  60   -0.9999996473
 33   1  60  60    0.9999996473
 36   1  60  60   -0.9999996473
 82   1  60  60    0.5643469682
 40   1  61  61    1.0000000000
 29   1  61  61   -0.9999996473
 34   1  61  61    0.9999996473
 37   1  61  61   -0.9999996473
 85   1  61  61    0.5643469682
 41   1  62  62    1.0000000000
 31   1  62  62   -0.9999996473
 35   1  62  62    0.9999996473
 39   1  62  62   -0.9999996473
 86   1  62  62    0.5643469682
 47   1  63  63    1.0000000000
 32   1  63  63   -0.9999996473
 45   1  63  63    0.9999996473
 46   1  63  63   -0.9999996473
 92   1  63  63    0.5643469682
 50   1  64  64    1.0000000000
 33   1  64  64   -0.9999996473
 46   1  64  64    0.9999996473
 49   1  64  64   -0.9999996473
 95   1  64  64    0.5643469682
 52   1  65  65    1.0000000000
 34   1  65  65   -0.9999996473
 47   1  65  65    0.9999996473
 50   1  65  65   -0.9999996473
 97   1  65  65    0.5643469682
 53   1  66  66    1.0000000000
 35   1  66  66   -0.9999996473
 48   1  66  66    0.9999996473
 51   1  66  66   -0.9999996473
 98   1  66  66    0.5643469682
 56   1  67  67    1.0000000000
 36   1  67  67   -0.9999996473
 49   1  67  67    0.9999996473
 55   1  67  67   -0.9999996473
101   1  67  67    0.5643469682
 59   1  68  68    1.0000000000
 37   1  68  68   -0.9999996473
 50   1  68  68    0.9999996473
 56   1  68  68   -0.9999996473
104   1  68  68    0.5643469682
 60   1  69  69    1.0000000000
 39   1  69  69   -0.9999996473
 51   1  69  69    0.9999996473
 58   1  69  69   -0.9999996473
105   1  69  69    0.5643469682
 64   1  70  70    1.0000000000
 40   1  70  70   -0.9999996473
 52   1  70  70    0.9999996473
 59   1  70  70   -0.9999996473
109   1  70  70    0.5643469682
 65   1  71  71    1.0000000000
 41   1  71  71   -0.9999996473
 53   1  71  71    0.9999996473
 60   1  71  71   -0.9999996473
110   1  71  71    0.5643469682
 66   1  72  72    1.0000000000
 44   1  72  72   -0.9999996473
 54   1  72  72    0.9999996473
 63   1  72  72   -0.9999996473
111   1  72  72    0.5643469682
  0   1  73  73   -0.6406325947
  1   1  73  73   -0.6406332197
 11   1  73  73   -1.0000000000
  1   1  74  74    0.6406325947
  7   1  74  74   -0.6406332197
 30   1  74  74   -1.0000000000
  3   1  75  75    0.6406325947
  9   1  75  75   -0.6406332197
 38   1  75  75   -1.0000000000
  5   1  76  76    0.6406325947
 11   1  76  76   -0.6406332197
 42   1  76  76   -1.0000000000
  6   1  77  77    0.6406325947
 12   1  77  77   -0.6406332197
 43   1  77  77   -1.0000000000
  7   1  78  78    0.6406325947
 26   1  78  78   -0.6406332197
 71   1  78  78   -1.0000000000
  9   1  79  79    0.6406325947
 28   1  79  79   -0.6406332197
 73   1  79  79   -1.0000000000
 11   1  80  80    0.6406325947
 30   1  80  80   -0.6406332197
 75   1  80  80   -1.0000000000
 12   1  81  81    0.6406325947
 31   1  81  81   -0.6406332197
 76   1  81  81   -1.0000000000
 17   1  82  82    0.6406325947
 36   1  82  82   -0.6406332197
 81   1  82  82   -1.0000000000
 19   1  83  83    0.6406325947
 38   1  83  83   -0.6406332197
 83   1  83  83   -1.0000000000
 20   1  84  84    0.6406325947
 39   1  84  84   -0.6406332197
 84   1  84  84   -1.0000000000
 23   1  85  85    0.6406325947
 42   1  85  85   -0.6406332197
 87   1  85  85   -1.0000000000
 24   1  86  86    0.6406325947
 43   1  86  86   -0.6406332197
 88   1  86  86   -1.0000000000
 25   1  87  87    0.6406325947
 44   1  87  87   -0.6406332197
 89   1  87  87   -1.0000000000
  2   1  88  88   -0.6471042560
  1   1  88  88    0.6471036310
 16   1  88  88   -1.0000000000
  8   1  89  89   -0.6471042560
  7   1  89  89    0.6471036310
 35   1  89  89   -1.0000000000
 13   1  90  90   -0.6471042560
  8   1  90  90    0.6471036310
 48   1  90  90   -1.0000000000
 14   1  91  91   -0.6471042560
  9   1  91  91    0.6471036310
 51   1  91  91   -1.0000000000
 15   1  92  92   -0.6471042560
 10   1  92  92    0.6471036310
 53   1  92  92   -1.0000000000
 16   1  93  93   -0.6471042560
 12   1  93  93    0.6471036310
 54   1  93  93   -1.0000000000
 27   1  94  94   -0.6471042560
 26   1  94  94    0.6471036310
 72   1  94  94   -1.0000000000
 32   1  95  95   -0.6471042560
 27   1  95  95    0.6471036310
 77   1  95  95   -1.0000000000
 33   1  96  96   -0.6471042560
 28   1  96  96    0.6471036310
 78   1  96  96   -1.0000000000
 34   1  97  97   -0.6471042560
 29   1  97  97    0.6471036310
 79   1  97  97   -1.0000000000
 35   1  98  98   -0.6471042560
 31   1  98  98    0.6471036310
 80   1  98  98   -1.0000000000
 45   1  99  99   -0.6471042560
 32   1  99  99    0.6471036310
 90   1  99  99   -1.0000000000
 46   1 100 100   -0.6471042560
 33   1 100 100    0.6471036310
 91   1 100 100   -1.0000000000
 47   1 101 101   -0.6471042560
 34   1 101 101    0.6471036310
 92   1 101 101   -1.0000000000
 48   1 102 102   -0.6471042560
 35   1 102 102    0.6471036310
 93   1 102 102   -1.0000000000
 49   1 103 103   -0.6471042560
 36   1 103 103    0.6471036310
 94   1 103 103   -1.0000000000
 50   1 104 104   -0.6471042560
 37   1 104 104    0.6471036310
 95   1 104 104   -1.0000000000
 51   1 105 105   -0.6471042560
 39   1 105 105    0.6471036310
 96   1 105 105   -1.0000000000
 52   1 106 106   -0.6471042560
 40   1 106 106    0.6471036310
 97   1 106 106   -1.0000000000
 53   1 107 107   -0.6471042560
 41   1 107 107    0.6471036310
 98   1 107 107   -1.0000000000
 54   1 108 108   -0.6471042560
 44   1 108 108    0.6471036310
 99   1 108 108   -1.0000000000
  0   1 109 109   -0.9999996081
  3   1 109 109   -1.0000000000
  1   1 109 109   -0.9999996081
 19   1 109 109   -0.6270521623
  1   1 110 110    0.9999996081
  9   1 110 110   -1.0000000000
  7   1 110 110   -0.9999996081
 38   1 110 110   -0.6270521623
  3   1 111 111    0.9999996081
 17   1 111 111   -1.0000000000
  9   1 111 111   -0.9999996081
 57   1 111 111   -0.6270521623
  5   1 112 112    0.9999996081
 19   1 112 112   -1.0000000000
 11   1 112 112   -0.9999996081
 61   1 112 112   -0.6270521623
  6   1 113 113    0.9999996081
 20   1 113 113   -1.0000000000
 12   1 113 113   -0.9999996081
 62   1 113 113   -0.6270521623
  7   1 114 114    0.9999996081
 28   1 114 114   -1.0000000000
 26   1 114 114   -0.9999996081
 73   1 114 114   -0.6270521623
  9   1 115 115    0.9999996081
 36   1 115 115   -1.0000000000
 28   1 115 115   -0.9999996081
 81   1 115 115   -0.6270521623
 11   1 116 116    0.9999996081
 38   1 116 116   -1.0000000000
 30   1 116 116   -0.9999996081
 83   1 116 116   -0.6270521623
 12   1 117 117    0.9999996081
 39   1 117 117   -1.0000000000
 31   1 117 117   -0.9999996081
 84   1 117 117   -0.6270521623
 17   1 118 118    0.9999996081
 55   1 118 118   -1.0000000000
 36   1 118 118   -0.9999996081
100   1 118 118   -0.6270521623
 19   1 119 119    0.9999996081
 57   1 119 119   -1.0000000000
 38   1 119 119   -0.9999996081
102   1 119 119   -0.6270521623
 20   1 120 120    0.9999996081
 58   1 120 120   -1.0000000000
 39   1 120 120   -0.9999996081
103   1 120 120   -0.6270521623
 23   1 121 121    0.9999996081
 61   1 121 121   -1.0000000000
 42   1 121 121   -0.9999996081
106   1 121 121   -0.6270521623
 24   1 122 122    0.9999996081
 62   1 122 122   -1.0000000000
 43   1 122 122   -0.9999996081
107   1 122 122   -0.6270521623
 25   1 123 123    0.9999996081
 63   1 123 123   -1.0000000000
 44   1 123 123   -0.9999996081
108   1 123 123   -0.6270521623
  4   1 124 124   -1.0000000000
  1   1 124 124    0.9999996473
  2   1 124 124   -0.9999996473
  3   1 124 124    0.9999996473
 22   1 124 124   -0.5643469682
 10   1 125 125   -1.0000000000
  7   1 125 125    0.9999996473
  8   1 125 125   -0.9999996473
  9   1 125 125    0.9999996473
 41   1 125 125   -0.5643469682
 15   1 126 126   -1.0000000000
  8   1 126 126    0.9999996473
 13   1 126 126   -0.9999996473
 14   1 126 126    0.9999996473
 53   1 126 126   -0.5643469682
 18   1 127 127   -1.0000000000
  9   1 127 127    0.9999996473
 14   1 127 127   -0.9999996473
 17   1 127 127    0.9999996473
 60   1 127 127   -0.5643469682
 21   1 128 128   -1.0000000000
 10   1 128 128    0.9999996473
 15   1 128 128   -0.9999996473
 18   1 128 128    0.9999996473
 65   1 128 128   -0.5643469682
 22   1 129 129   -1.0000000000
 12   1 129 129    0.9999996473
 16   1 129 129   -0.9999996473
 20   1 129 129    0.9999996473
 66   1 129 129   -0.5643469682
 29   1 130 130   -1.0000000000
 26   1 130 130    0.9999996473
 27   1 130 130   -0.9999996473
 28   1 130 130    0.9999996473
 74   1 130 130   -0.5643469682
 34   1 131 131   -1.0000000000
 27   1 131 131    0.9999996473
 32   1 131 131   -0.9999996473
 33   1 131 131    0.9999996473
 79   1 131 131   -0.5643469682
 37   1 132 132   -1.0000000000
 28   1 132 132    0.9999996473
 33   1 132 132   -0.9999996473
 36   1 132 132    0.9999996473
 82   1 132 132   -0.5643469682
 40   1 133 133   -1.0000000000
 29   1 133 133    0.9999996473
 34   1 133 133   -0.9999996473
 37   1 133 133    0.9999996473
 85   1 133 133   -0.5643469682
 41   1 134 134   -1.0000000000
 31   1 134 134    0.9999996473
 35   1 134 134   -0.9999996473
 39   1 134 134    0.9999996473
 86   1 134 134   -0.5643469682
 47   1 135 135   -1.0000000000
 32   1 135 135    0.9999996473
 45   1 135 135   -0.9999996473
 46   1 135 135    0.9999996473
 92   1 135 135   -0.5643469682
 50   1 136 136   -1.0000000000
 33   1 136 136    0.9999996473
 46   1 136 136   -0.9999996473
 49   1 136 136    0.9999996473
 95   1 136 136   -0.5643469682
 52   1 137 137   -1.0000000000
 34   1 137 137    0.9999996473
 47   1 137 137   -0.9999996473
 50   1 137 137    0.9999996473
 97   1 137 137   -0.5643469682
 53   1 138 138   -1.0000000000
 35   1 138 138    0.9999996473
 48   1 138 138   -0.9999996473
 51   1 138 138    0.9999996473
 98   1 138 138   -0.5643469682
 56   1 139 139   -1.0000000000
 36   1 139 139    0.9999996473
 49   1 139 139   -0.9999996473
 55   1 139 139    0.9999996473
101   1 139 139   -0.5643469682
 59   1 140 140   -1.0000000000
 37   1 140 140    0.9999996473
 50   1 140 140   -0.9999996473
 56   1 140 140    0.9999996473
104   1 140 140   -0.5643469682
 60   1 141 141   -1.0000000000
 39   1 141 141    0.9999996473
 51   1 141 141   -0.9999996473
 58   1 141 141    0.9999996473
105   1 141 141   -0.5643469682
 64   1 142 142   -1.0000000000
 40   1 142 142    0.9999996473
 52   1 142 142   -0.9999996473
 59   1 142 142    0.9999996473
109   1 142 142   -0.5643469682
 65   1 143 143   -1.0000000000
 41   1 143 143    0.9999996473
 53   1 143 143   -0.9999996473
 60   1 143 143    0.9999996473
110   1 143 143   -0.5643469682
 66   1 144 144   -1.0000000000
 44   1 144 144    0.9999996473
 54   1 144 144   -0.9999996473
 63   1 144 144    0.9999996473
111   1 144 144   -0.5643469682
  8   2   1   1    1.0000000000
  9   2   2   2    1.0000000000
 10   2   3   3    1.0000000000
 11   2   4   4    1.0000000000
 12   2   5   5    1.0000000000
 14   2   6   6    1.0000000000
 15   2   7   7    1.0000000000
 16   2   8   8    1.0000000000
 18   2   9   9    1.0000000000
 19   2  10  10    1.0000000000
 20   2  11  11    1.0000000000
 22   2  12  12    1.0000000000
 24   2  13  13    1.0000000000
 32   2  14  14    1.0000000000
 33   2  15  15    1.0000000000
 34   2  16  16    1.0000000000
 35   2  17  17    1.0000000000
 37   2  18  18    1.0000000000
 38   2  19  19    1.0000000000
 39   2  20  20    1.0000000000
 40   2  21  21    1.0000000000
 41   2  22  22    1.0000000000
 43   2  23  23    1.0000000000
 46   2  24  24    1.0000000000
 48   2  25  25    1.0000000000
 50   2  26  26    1.0000000000
 51   2  27  27    1.0000000000
 53   2  28  28    1.0000000000
 59   2  29  29    1.0000000000
 60   2  30  30    1.0000000000
 62   2  31  31    1.0000000000
 65   2  32  32    1.0000000000
 71   2  33  33    1.0000000000
 72   2  34  34    1.0000000000
 73   2  35  35    1.0000000000
 74   2  36  36    1.0000000000
 76   2  37  37    1.0000000000
 77   2  38  38    1.0000000000
 78   2  39  39    1.0000000000
 79   2  40  40    1.0000000000
 80   2  41  41    1.0000000000
 81   2  42  42    1.0000000000
 82   2  43  43    1.0000000000
 83   2  44  44    1.0000000000
 84   2  45  45    1.0000000000
 85   2  46  46    1.0000000000
 86   2  47  47    1.0000000000
 87   2  48  48    1.0000000000
 88   2  49  49    1.0000000000
 89   2  50  50    1.0000000000
 90   2  51  51    1.0000000000
 91   2  52  52    1.0000000000
 92   2  53  53    1.0000000000
 94   2  54  54    1.0000000000
 95   2  55  55    1.0000000000
 96   2  56  56    1.0000000000
 97   2  57  57    1.0000000000
 98   2  58  58    1.0000000000
 99   2  59  59    1.0000000000
100   2  60  60    1.0000000000
101   2  61  61    1.0000000000
103   2  62  62    1.0000000000
104   2  63  63    1.0000000000
105   2  64  64    1.0000000000
106   2  65  65    1.0000000000
107   2  66  66    1.0000000000
108   2  67  67    1.0000000000
109   2  68  68    1.0000000000
111   2  69  69    1.0000000000
  7   2  70  70   -1.0000000000
  0   2  70  70   -1.0000000000
 13   2  71  71   -1.0000000000
  0   2  71  71   -1.0000000000
 17   2  72  72   -1.0000000000
  0   2  72  72   -1.0000000000
 21   2  73  73   -1.0000000000
  0   2  73  73   -1.0000000000
 23   2  74  74   -1.0000000000
  0   2  74  74   -1.0000000000
 25   2  75  75   -1.0000000000
  0   2  75  75   -1.0000000000
 32   2  76  76   -1.0000000000
  0   2  76  76   -1.0000000000
 33   2  77  77   -1.0000000000
  0   2  77  77   -1.0000000000
 34   2  78  78   -1.0000000000
  0   2  78  78   -1.0000000000
 37   2  79  79   -1.0000000000
  0   2  79  79   -1.0000000000
 39   2  80  80   -1.0000000000
  0   2  80  80   -1.0000000000
 40   2  81  81   -1.0000000000
  0   2  81  81   -1.0000000000
 46   2  82  82   -1.0000000000
  0   2  82  82   -1.0000000000
 50   2  83  83   -1.0000000000
  0   2  83  83   -1.0000000000
 59   2  84  84   -1.0000000000
  0   2  84  84   -1.0000000000
 71   2  85  85   -1.0000000000
  0   2  85  85   -1.0000000000
 72   2  86  86   -1.0000000000
  0   2  86  86   -1.0000000000
 73   2  87  87   -1.0000000000
  0   2  87  87   -1.0000000000
 74   2  88  88   -1.0000000000
  0   2  88  88   -1.0000000000
 75   2  89  89   -1.0000000000
  0   2  89  89   -1.0000000000
 76   2  90  90   -1.0000000000
  0   2  90  90   -1.0000000000
 77   2  91  91   -1.0000000000
  0   2  91  91   -1.0000000000
 78   2  92  92   -1.0000000000
  0   2  92  92   -1.0000000000
 79   2  93  93   -1.0000000000
  0   2  93  93   -1.0000000000
 80   2  94  94   -1.0000000000
  0   2  94  94   -1.0000000000
 81   2  95  95   -1.0000000000
  0   2  95  95   -1.0000000000
 82   2  96  96   -1.0000000000
  0   2  96  96   -1.0000000000
 84   2  97  97   -1.0000000000
  0   2  97  97   -1.0000000000
 85   2  98  98   -1.0000000000
  0   2  98  98   -1.0000000000
 86   2  99  99   -1.0000000000
  0   2  99  99   -1.0000000000
 87   2 100 100   -1.0000000000
  0   2 100 100   -1.0000000000
 88   2 101 101   -1.0000000000
  0   2 101 101   -1.0000000000
 89   2 102 102   -1.0000000000
  0   2 102 102   -1.0000000000
 90   2 103 103   -1.0000000000
  0   2 103 103   -1.0000000000
 91   2 104 104   -1.0000000000
  0   2 104 104   -1.0000000000
 92   2 105 105   -1.0000000000
  0   2 105 105   -1.0000000000
 93   2 106 106   -1.0000000000
  0   2 106 106   -1.0000000000
 94   2 107 107   -1.0000000000
  0   2 107 107   -1.0000000000
 95   2 108 108   -1.0000000000
  0   2 108 108   -1.0000000000
 96   2 109 109   -1.0000000000
  0   2 109 109   -1.0000000000
 97   2 110 110   -1.0000000000
  0   2 110 110   -1.0000000000
 99   2 111 111   -1.0000000000
  0   2 111 111   -1.0000000000
100   2 112 112   -1.0000000000
  0   2 112 112   -1.0000000000
101   2 113 113   -1.0000000000
  0   2 113 113   -1.0000000000
102   2 114 114   -1.0000000000
  0   2 114 114   -1.0000000000
103   2 115 115   -1.0000000000
  0   2 115 115   -1.0000000000
104   2 116 116   -1.0000000000
  0   2 116 116   -1.0000000000
105   2 117 117   -1.0000000000
  0   2 117 117   -1.0000000000
106   2 118 118   -1.0000000000
  0   2 118 118   -1.0000000000
107   2 119 119   -1.0000000000
  0   2 119 119   -1.0000000000
108   2 120 120   -1.0000000000
  0   2 120 120   -1.0000000000
109   2 121 121   -1.0000000000
  0   2 121 121   -1.0000000000
110   2 122 122   -1.0000000000
  0   2 122 122   -1.0000000000
111   2 123 123   -1.0000000000
  0   2 123 123   -1.0000000000
  0   3   1   1   -1.0000000000
  1   3   1   2    1.0000000000
  3   3   1   3    1.0000000000
  5   3   1   4    1.0000000000
  6   3   1   5    1.0000000000
 11   3   1   6    1.0000000000
 19   3   1   7    1.0000000000
  7   3   2   2    1.0000000000
  9   3   2   3    1.0000000000
 11   3   2   4    1.0000000000
 12   3   2   5    1.0000000000
 30   3   2   6    1.0000000000
 38   3   2   7    1.0000000000
 17   3   3   3    1.0000000000
 19   3   3   4    1.0000000000
 20   3   3   5    1.0000000000
 38   3   3   6    1.0000000000
 57   3   3   7    1.0000000000
 23   3   4   4    1.0000000000
 24   3   4   5    1.0000000000
 42   3   4   6    1.0000000000
 61   3   4   7    1.0000000000
 25   3   5   5    1.0000000000
 43   3   5   6    1.0000000000
 62   3   5   7    1.0000000000
 75   3   6   6    1.0000000000
 83   3   6   7    1.0000000000
102   3   7   7    1.0000000000
  0   4   1   1   -1.0000000000
  1   4   1   2    1.0000000000
  2   4   1   3    1.0000000000
  3   4   1   4    1.0000000000
  4   4   1   5    1.0000000000
  6   4   1   6    1.0000000000
 16   4   1   7    1.0000000000
 22   4   1   8    1.0000000000
  7   4   2   2    1.0000000000
  8   4   2   3    1.0000000000
  9   4   2   4    1.0000000000
 10   4   2   5    1.0000000000
 12   4   2   6    1.0000000000
 35   4   2   7    1.0000000000
 41   4   2   8    1.0000000000
 13   4   3   3    1.0000000000
 14   4   3   4    1.0000000000
 15   4   3   5    1.0000000000
 16   4   3   6    1.0000000000
 48   4   3   7    1.0000000000
 53   4   3   8    1.0000000000
 17   4   4   4    1.0000000000
 18   4   4   5    1.0000000000
 20   4   4   6    1.0000000000
 51   4   4   7    1.0000000000
 60   4   4   8    1.0000000000
 21   4   5   5    1.0000000000
 22   4   5   6    1.0000000000
 53   4   5   7    1.0000000000
 65   4   5   8    1.0000000000
 25   4   6   6    1.0000000000
 54   4   6   7    1.0000000000
 66   4   6   8    1.0000000000
 93   4   7   7    1.0000000000
 98   4   7   8    1.0000000000
110   4   8   8    1.0000000000
  0   5   1   1   -0.2499989062
  5   5   1   1   -1.0000000000
  6   5   1   1   -1.0000000000
  1   5   1   2    0.2499989062
 11   5   1   2   -1.0000000000
 12   5   1   2   -1.0000000000
  3   5   1   3    0.2499989062
 19   5   1   3   -1.0000000000
 20   5   1   3   -1.0000000000
  5   5   1   4    0.2499989062
 23   5   1   4   -1.0000000000
 24   5   1   4   -1.0000000000
  6   5   1   5    0.2499989062
 24   5   1   5   -1.0000000000
 25   5   1   5   -1.0000000000
  7   5   2   2    0.2499989062
 30   5   2   2   -1.0000000000
 31   5   2   2   -1.0000000000
  9   5   2   3    0.2499989062
 38   5   2   3   -1.0000000000
 39   5   2   3   -1.0000000000
 11   5   2   4    0.2499989062
 42   5   2   4   -1.0000000000
 43   5   2   4   -1.0000000000
 12   5   2   5    0.2499989062
 43   5   2   5   -1.0000000000
 44   5   2   5   -1.0000000000
 17   5   3   3    0.2499989062
 57   5   3   3   -1.0000000000
 58   5   3   3   -1.0000000000
 19   5   3   4    0.2499989062
 61   5   3   4   -1.0000000000
 62   5   3   4   -1.0000000000
 20   5   3   5    0.2499989062
 62   5   3   5   -1.0000000000
 63   5   3   5   -1.0000000000
 23   5   4   4    0.2499989062
 67   5   4   4   -1.0000000000
 68   5   4   4   -1.0000000000
 24   5   4   5    0.2499989062
 68   5   4   5   -1.0000000000
 69   5   4   5   -1.0000000000
 25   5   5   5    0.2499989062
 69   5   5   5   -1.0000000000
 70   5   5   5   -1.0000000000
  1   6   1   1    1.0000000000
  7   6   1   2    1.0000000000
  9   6   1   3    1.0000000000
 11   6   1   4    1.0000000000
 12   6   1   5    1.0000000000
 26   6   2   2    1.0000000000
 28   6   2   3    1.0000000000
 30   6   2   4    1.0000000000
 31   6   2   5    1.0000000000
 36   6   3   3    1.0000000000
 38   6   3   4    1.0000000000
 39   6   3   5    1.0000000000
 42   6   4   4    1.0000000000
 43   6   4   5    1.0000000000
 44   6   5   5    1.0000000000
  2   7   1   1    1.0000000000
  8   7   1   2    1.0000000000
 13   7   1   3    1.0000000000
 14   7   1   4    1.0000000000
 15   7   1   5    1.0000000000
 16   7   1   6    1.0000000000
 27   7   2   2    1.0000000000
 32   7   2   3    1.0000000000
 33   7   2   4    1.0000000000
 34   7   2   5    1.0000000000
 35   7   2   6    1.0000000000
 45   7   3   3    1.0000000000
 46   7   3   4    1.0000000000
 47   7   3   5    1.0000000000
 48   7   3   6    1.0000000000
 49   7   4   4    1.0000000000
 50   7   4   5    1.0000000000
 51   7   4   6    1.0000000000
 52   7   5   5    1.0000000000
 53   7   5   6    1.0000000000
 54   7   6   6    1.0000000000
  3   8   1   1    1.0000000000
  9   8   1   2    1.0000000000
 17   8   1   3    1.0000000000
 19   8   1   4    1.0000000000
 20   8   1   5    1.0000000000
 28   8   2   2    1.0000000000
 36   8   2   3    1.0000000000
 38   8   2   4    1.0000000000
 39   8   2   5    1.0000000000
 55   8   3   3    1.0000000000
 57   8   3   4    1.0000000000
 58   8   3   5    1.0000000000
 61   8   4   4    1.0000000000
 62   8   4   5    1.0000000000
 63   8   5   5    1.0000000000
  4   9   1   1    1.0000000000
 10   9   1   2    1.0000000000
 15   9   1   3    1.0000000000
 18   9   1   4    1.0000000000
 21   9   1   5    1.0000000000
 22   9   1   6    1.0000000000
 29   9   2   2    1.0000000000
 34   9   2   3    1.0000000000
 37   9   2   4    1.0000000000
 40   9   2   5    1.0000000000
 41   9   2   6    1.0000000000
 47   9   3   3    1.0000000000
 50   9   3   4    1.0000000000
 52   9   3   5    1.0000000000
 53   9   3   6    1.0000000000
 56   9   4   4    1.0000000000
 59   9   4   5    1.0000000000
 60   9   4   6    1.0000000000
 64   9   5   5    1.0000000000
 65   9   5   6    1.0000000000
 66   9   6   6    1.0000000000
  5  10   1   1    1.0000000000
 11  10   1   2    1.0000000000
 19  10   1   3    1.0000000000
 23  10   1   4    1.0000000000
 24  10   1   5    1.0000000000
 30  10   2   2    1.0000000000
 38  10   2   3    1.0000000000
 42  10   2   4    1.0000000000
 43  10   2   5    1.0000000000
 57  10   3   3    1.0000000000
 61  10   3   4    1.0000000000
 62  10   3   5    1.0000000000
 67  10   4   4    1.0000000000
 68  10   4   5    1.0000000000
 69  10   5   5    1.0000000000
  6  11   1   1    1.0000000000
 12  11   1   2    1.0000000000
 20  11   1   3    1.0000000000
 24  11   1   4    1.0000000000
 25  11   1   5    1.0000000000
 31  11   2   2    1.0000000000
 39  11   2   3    1.0000000000
 43  11   2   4    1.0000000000
 44  11   2   5    1.0000000000
 58  11   3   3    1.0000000000
 62  11   3   4    1.0000000000
 63  11   3   5    1.0000000000
 68  11   4   4    1.0000000000
 69  11   4   5    1.0000000000
 70  11   5   5    1.0000000000
  0  12   1   1   -1.0000000000
  1  12   1   1   -1.0000000000
  1  12   1   2    1.0000000000
  7  12   1   2   -1.0000000000
  3  12   1   3    1.0000000000
  9  12   1   3   -1.0000000000
  5  12   1   4    1.0000000000
 11  12   1   4   -1.0000000000
  6  12   1   5    1.0000000000
 12  12   1   5   -1.0000000000
  7  12   2   2    1.0000000000
 26  12   2   2   -1.0000000000
  9  12   2   3    1.0000000000
 28  12   2   3   -1.0000000000
 11  12   2   4    1.0000000000
 30  12   2   4   -1.0000000000
 12  12   2   5    1.0000000000
 31  12   2   5   -1.0000000000
 17  12   3   3    1.0000000000
 36  12   3   3   -1.0000000000
 19  12   3   4    1.0000000000
 38  12   3   4   -1.0000000000
 20  12   3   5    1.0000000000
 39  12   3   5   -1.0000000000
 23  12   4   4    1.0000000000
 42  12   4   4   -1.0000000000
 24  12   4   5    1.0000000000
 43  12   4   5   -1.0000000000
 25  12   5   5    1.0000000000
 44  12   5   5   -1.0000000000
  0  13   1   1   -1.0000000000
  2  13   1   1   -1.0000000000
  1  13   1   2    1.0000000000
  8  13   1   2   -1.0000000000
  2  13   1   3    1.0000000000
 13  13   1   3   -1.0000000000
  3  13   1   4    1.0000000000
 14  13   1   4   -1.0000000000
  4  13   1   5    1.0000000000
 15  13   1   5   -1.0000000000
  6  13   1   6    1.0000000000
 16  13   1   6   -1.0000000000
  7  13   2   2    1.0000000000
 27  13   2   2   -1.0000000000
  8  13   2   3    1.0000000000
 32  13   2   3   -1.0000000000
  9  13   2   4    1.0000000000
 33  13   2   4   -1.0000000000
 10  13   2   5    1.0000000000
 34  13   2   5   -1.0000000000
 12  13   2   6    1.0000000000
 35  13   2   6   -1.0000000000
 13  13   3   3    1.0000000000
 45  13   3   3   -1.0000000000
 14  13   3   4    1.0000000000
 46  13   3   4   -1.0000000000
 15  13   3   5    1.0000000000
 47  13   3   5   -1.0000000000
 16  13   3   6    1.0000000000
 48  13   3   6   -1.0000000000
 17  13   4   4    1.0000000000
 49  13   4   4   -1.0000000000
 18  13   4   5    1.0000000000
 50  13   4   5   -1.0000000000
 20  13   4   6    1.0000000000
 51  13   4   6   -1.0000000000
 21  13   5   5    1.0000000000
 52  13   5   5   -1.0000000000
 22  13   5   6    1.0000000000
 53  13   5   6   -1.0000000000
 25  13   6   6    1.0000000000
 54  13   6   6   -1.0000000000
  0  14   1   1   -1.0000000000
  3  14   1   1   -1.0000000000
  1  14   1   2    1.0000000000
  9  14   1   2   -1.0000000000
  3  14   1   3    1.0000000000
 17  14   1   3   -1.0000000000
  5  14   1   4    1.0000000000
 19  14   1   4   -1.0000000000
  6  14   1   5    1.0000000000
 20  14   1   5   -1.0000000000
  7  14   2   2    1.0000000000
 28  14   2   2   -1.0000000000
  9  14   2   3    1.0000000000
 36  14   2   3   -1.0000000000
 11  14   2   4    1.0000000000
 38  14   2   4   -1.0000000000
 12  14   2   5    1.0000000000
 39  14   2   5   -1.0000000000
 17  14   3   3    1.0000000000
 55  14   3   3   -1.0000000000
 19  14   3   4    1.0000000000
 57  14   3   4   -1.0000000000
 20  14   3   5    1.0000000000
 58  14   3   5   -1.0000000000
 23  14   4   4    1.0000000000
 61  14   4   4   -1.0000000000
 24  14   4   5    1.0000000000
 62  14   4   5   -1.0000000000
 25  14   5   5    1.0000000000
 63  14   5   5   -1.0000000000
  0  15   1   1   -1.0000000000
  4  15   1   1   -1.0000000000
  1  15   1   2    1.0000000000
 10  15   1   2   -1.0000000000
  2  15   1   3    1.0000000000
 15  15   1   3   -1.0000000000
  3  15   1   4    1.0000000000
 18  15   1   4   -1.0000000000
  4  15   1   5    1.0000000000
 21  15   1   5   -1.0000000000
  6  15   1   6    1.0000000000
 22  15   1   6   -1.0000000000
  7  15   2   2    1.0000000000
 29  15   2   2   -1.0000000000
  8  15   2   3    1.0000000000
 34  15   2   3   -1.0000000000
  9  15   2   4    1.0000000000
 37  15   2   4   -1.0000000000
 10  15   2   5    1.0000000000
 40  15   2   5   -1.0000000000
 12  15   2   6    1.0000000000
 41  15   2   6   -1.0000000000
 13  15   3   3    1.0000000000
 47  15   3   3   -1.0000000000
 14  15   3   4    1.0000000000
 50  15   3   4   -1.0000000000
 15  15   3   5    1.0000000000
 52  15   3   5   -1.0000000000
 16  15   3   6    1.0000000000
 53  15   3   6   -1.0000000000
 17  15   4   4    1.0000000000
 56  15   4   4   -1.0000000000
 18  15   4   5    1.0000000000
 59  15   4   5   -1.0000000000
 20  15   4   6    1.0000000000
 60  15   4   6   -1.0000000000
 21  15   5   5    1.0000000000
 64  15   5   5   -1.0000000000
 22  15   5   6    1.0000000000
 65  15   5   6   -1.0000000000
 25  15   6   6    1.0000000000
 66  15   6   6   -1.0000000000
  0  16   1   1   -1.0000000000
  5  16   1   1   -1.0000000000
  1  16   1   2    1.0000000000
 11  16   1   2   -1.0000000000
  3  16   1   3    1.0000000000
 19  16   1   3   -1.0000000000
  5  16   1   4    1.0000000000
 23  16   1   4   -1.0000000000
  6  16   1   5    1.0000000000
 24  16   1   5   -1.0000000000
  7  16   2   2    1.0000000000
 30  16   2   2   -1.0000000000
  9  16   2   3    1.0000000000
 38  16   2   3   -1.0000000000
 11  16   2   4    1.0000000000
 42  16   2   4   -1.0000000000
 12  16   2   5    1.0000000000
 43  16   2   5   -1.0000000000
 17  16   3   3    1.0000000000
 57  16   3   3   -1.0000000000
 19  16   3   4    1.0000000000
 61  16   3   4   -1.0000000000
 20  16   3   5    1.0000000000
 62  16   3   5   -1.0000000000
 23  16   4   4    1.0000000000
 67  16   4   4   -1.0000000000
 24  16   4   5    1.0000000000
 68  16   4   5   -1.0000000000
 25  16   5   5    1.0000000000
 69  16   5   5   -1.0000000000
  0  17   1   1   -1.0000000000
  6  17   1   1   -1.0000000000
  1  17   1   2    1.0000000000
 12  17   1   2   -1.0000000000
  3  17   1   3    1.0000000000
 20  17   1   3   -1.0000000000
  5  17   1   4    1.0000000000
 24  17   1   4   -1.0000000000
  6  17   1   5    1.0000000000
 25  17   1   5   -1.0000000000
  7  17   2   2    1.0000000000
 31  17   2   2   -1.0000000000
  9  17   2   3    1.0000000000
 39  17   2   3   -1.0000000000
 11  17   2   4    1.0000000000
 43  17   2   4   -1.0000000000
 12  17   2   5    1.0000000000
 44  17   2   5   -1.0000000000
 17  17   3   3    1.0000000000
 58  17   3   3   -1.0000000000
 19  17   3   4    1.0000000000
 62  17   3   4   -1.0000000000
 20  17   3   5    1.0000000000
 63  17   3   5   -1.0000000000
 23  17   4   4    1.0000000000
 68  17   4   4   -1.0000000000
 24  17   4   5    1.0000000000
 69  17   4   5   -1.0000000000
 25  17   5   5    1.0000000000
 70  17   5   5   -1.0000000000
